; Automatically generated by SBV. Do not edit.
; Created on Sun Aug 11 13:15:40 ìåãû (ïWèÄéû) 2013
(set-option :produce-models true)
(set-logic QF_UFBV)
; --- uninterpreted sorts ---
; --- literal constants ---
(define-fun s_2 () Bool false)
(define-fun s_1 () Bool true)
(define-fun s8 () (_ BitVec 8) #x02)
(define-fun s27 () (_ BitVec 8) #x03)
(define-fun s36 () (_ BitVec 8) #x04)
(define-fun s45 () (_ BitVec 8) #x05)
(define-fun s54 () (_ BitVec 8) #x06)
(define-fun s63 () (_ BitVec 8) #x07)
(define-fun s72 () (_ BitVec 8) #x08)
(define-fun s81 () (_ BitVec 8) #x09)
(define-fun s90 () (_ BitVec 8) #x0a)
(define-fun s107 () (_ BitVec 64) #x0000000000000000)
(define-fun s109 () (_ BitVec 64) #x0000000000000001)
(define-fun s111 () (_ BitVec 64) #x0000008000000000)
(define-fun s199 () (_ BitVec 64) #x8000000000000002)
(define-fun s287 () (_ BitVec 64) #x0000000000000002)
; --- skolem constants ---
(declare-fun s0 () (_ BitVec 8))
(declare-fun s1 () (_ BitVec 8))
(declare-fun s2 () (_ BitVec 8))
(declare-fun s3 () (_ BitVec 8))
(declare-fun s4 () (_ BitVec 8))
(declare-fun s5 () (_ BitVec 8))
(declare-fun s6 () (_ BitVec 8))
(declare-fun s7 () (_ BitVec 8))
(declare-fun s24 () (_ BitVec 8))
(declare-fun s25 () (_ BitVec 8))
(declare-fun s26 () (_ BitVec 8))
(declare-fun s33 () (_ BitVec 8))
(declare-fun s34 () (_ BitVec 8))
(declare-fun s35 () (_ BitVec 8))
(declare-fun s42 () (_ BitVec 8))
(declare-fun s43 () (_ BitVec 8))
(declare-fun s44 () (_ BitVec 8))
(declare-fun s51 () (_ BitVec 8))
(declare-fun s52 () (_ BitVec 8))
(declare-fun s53 () (_ BitVec 8))
(declare-fun s60 () (_ BitVec 8))
(declare-fun s61 () (_ BitVec 8))
(declare-fun s62 () (_ BitVec 8))
(declare-fun s69 () (_ BitVec 8))
(declare-fun s70 () (_ BitVec 8))
(declare-fun s71 () (_ BitVec 8))
(declare-fun s78 () (_ BitVec 8))
(declare-fun s79 () (_ BitVec 8))
(declare-fun s80 () (_ BitVec 8))
(declare-fun s87 () (_ BitVec 8))
(declare-fun s88 () (_ BitVec 8))
(declare-fun s89 () (_ BitVec 8))
(declare-fun s96 () (_ BitVec 64))
(declare-fun s97 () (_ BitVec 64))
(declare-fun s98 () (_ BitVec 64))
(declare-fun s99 () (_ BitVec 64))
(declare-fun s100 () (_ BitVec 64))
(declare-fun s101 () (_ BitVec 64))
(declare-fun s102 () (_ BitVec 64))
(declare-fun s103 () (_ BitVec 64))
(declare-fun s104 () (_ BitVec 64))
(declare-fun s105 () (_ BitVec 64))
(declare-fun s106 () (_ BitVec 64))
(declare-fun s186 () (_ BitVec 64))
(declare-fun s187 () (_ BitVec 64))
(declare-fun s188 () (_ BitVec 64))
(declare-fun s189 () (_ BitVec 64))
(declare-fun s190 () (_ BitVec 64))
(declare-fun s191 () (_ BitVec 64))
(declare-fun s192 () (_ BitVec 64))
(declare-fun s193 () (_ BitVec 64))
(declare-fun s194 () (_ BitVec 64))
(declare-fun s195 () (_ BitVec 64))
(declare-fun s196 () (_ BitVec 64))
(declare-fun s274 () (_ BitVec 64))
(declare-fun s275 () (_ BitVec 64))
(declare-fun s276 () (_ BitVec 64))
(declare-fun s277 () (_ BitVec 64))
(declare-fun s278 () (_ BitVec 64))
(declare-fun s279 () (_ BitVec 64))
(declare-fun s280 () (_ BitVec 64))
(declare-fun s281 () (_ BitVec 64))
(declare-fun s282 () (_ BitVec 64))
(declare-fun s283 () (_ BitVec 64))
(declare-fun s284 () (_ BitVec 64))
(declare-fun s362 () (_ BitVec 64))
(declare-fun s363 () (_ BitVec 64))
(declare-fun s364 () (_ BitVec 64))
(declare-fun s365 () (_ BitVec 64))
(declare-fun s366 () (_ BitVec 64))
(declare-fun s367 () (_ BitVec 64))
(declare-fun s368 () (_ BitVec 64))
(declare-fun s369 () (_ BitVec 64))
(declare-fun s370 () (_ BitVec 64))
(declare-fun s371 () (_ BitVec 64))
(declare-fun s372 () (_ BitVec 64))
(declare-fun s449 () (_ BitVec 64))
(declare-fun s450 () (_ BitVec 64))
(declare-fun s451 () (_ BitVec 64))
(declare-fun s452 () (_ BitVec 64))
(declare-fun s453 () (_ BitVec 64))
(declare-fun s454 () (_ BitVec 64))
(declare-fun s455 () (_ BitVec 64))
(declare-fun s456 () (_ BitVec 64))
(declare-fun s457 () (_ BitVec 64))
(declare-fun s458 () (_ BitVec 64))
(declare-fun s459 () (_ BitVec 64))
; --- constant tables ---
; --- skolemized tables ---
(declare-fun table0 ((_ BitVec 8)) (_ BitVec 64))
(declare-fun table1 ((_ BitVec 8)) (_ BitVec 64))
(declare-fun table2 ((_ BitVec 8)) (_ BitVec 64))
(declare-fun table3 ((_ BitVec 8)) (_ BitVec 64))
(declare-fun table4 ((_ BitVec 8)) (_ BitVec 64))
(declare-fun table5 ((_ BitVec 8)) (_ BitVec 64))
(declare-fun table6 ((_ BitVec 8)) (_ BitVec 64))
(declare-fun table7 ((_ BitVec 8)) (_ BitVec 64))
(declare-fun table8 ((_ BitVec 8)) (_ BitVec 64))
(declare-fun table9 ((_ BitVec 8)) (_ BitVec 64))
(declare-fun table10 ((_ BitVec 8)) (_ BitVec 64))
(declare-fun table11 ((_ BitVec 8)) (_ BitVec 64))
(declare-fun table12 ((_ BitVec 8)) (_ BitVec 64))
(declare-fun table13 ((_ BitVec 8)) (_ BitVec 64))
(declare-fun table14 ((_ BitVec 8)) (_ BitVec 64))
(declare-fun table15 ((_ BitVec 8)) (_ BitVec 64))
(declare-fun table16 ((_ BitVec 8)) (_ BitVec 64))
(declare-fun table17 ((_ BitVec 8)) (_ BitVec 64))
(declare-fun table18 ((_ BitVec 8)) (_ BitVec 64))
(declare-fun table19 ((_ BitVec 8)) (_ BitVec 64))
(declare-fun table20 ((_ BitVec 8)) (_ BitVec 64))
(declare-fun table21 ((_ BitVec 8)) (_ BitVec 64))
(declare-fun table22 ((_ BitVec 8)) (_ BitVec 64))
(declare-fun table23 ((_ BitVec 8)) (_ BitVec 64))
(declare-fun table24 ((_ BitVec 8)) (_ BitVec 64))
(declare-fun table25 ((_ BitVec 8)) (_ BitVec 64))
(declare-fun table26 ((_ BitVec 8)) (_ BitVec 64))
(declare-fun table27 ((_ BitVec 8)) (_ BitVec 64))
(declare-fun table28 ((_ BitVec 8)) (_ BitVec 64))
(declare-fun table29 ((_ BitVec 8)) (_ BitVec 64))
(declare-fun table30 ((_ BitVec 8)) (_ BitVec 64))
(declare-fun table31 ((_ BitVec 8)) (_ BitVec 64))
(declare-fun table32 ((_ BitVec 8)) (_ BitVec 64))
(declare-fun table33 ((_ BitVec 8)) (_ BitVec 64))
(declare-fun table34 ((_ BitVec 8)) (_ BitVec 64))
(declare-fun table35 ((_ BitVec 8)) (_ BitVec 64))
(declare-fun table36 ((_ BitVec 8)) (_ BitVec 64))
(declare-fun table37 ((_ BitVec 8)) (_ BitVec 64))
(declare-fun table38 ((_ BitVec 8)) (_ BitVec 64))
(declare-fun table39 ((_ BitVec 8)) (_ BitVec 64))
(declare-fun table40 ((_ BitVec 8)) (_ BitVec 64))
(declare-fun table41 ((_ BitVec 8)) (_ BitVec 64))
(declare-fun table42 ((_ BitVec 8)) (_ BitVec 64))
(declare-fun table43 ((_ BitVec 8)) (_ BitVec 64))
(declare-fun table44 ((_ BitVec 8)) (_ BitVec 64))
; --- arrays ---
; --- uninterpreted constants ---
; --- user given axioms ---
; --- formula ---
(assert ; no quantifiers
   (let ((s9 (bvule s0 s8)))
   (let ((s10 (bvule s1 s8)))
   (let ((s11 (bvule s2 s8)))
   (let ((s12 (bvule s3 s8)))
   (let ((s13 (bvule s4 s8)))
   (let ((s14 (bvule s5 s8)))
   (let ((s15 (bvule s6 s8)))
   (let ((s16 (bvule s7 s8)))
   (let ((s17 (and s15 s16)))
   (let ((s18 (and s14 s17)))
   (let ((s19 (and s13 s18)))
   (let ((s20 (and s12 s19)))
   (let ((s21 (and s11 s20)))
   (let ((s22 (and s10 s21)))
   (let ((s23 (and s9 s22)))
   (let ((s28 (bvult s24 s27)))
   (let ((s29 (bvult s25 s27)))
   (let ((s30 (bvult s26 s27)))
   (let ((s31 (and s29 s30)))
   (let ((s32 (and s28 s31)))
   (let ((s37 (bvult s33 s36)))
   (let ((s38 (bvult s34 s36)))
   (let ((s39 (bvult s35 s36)))
   (let ((s40 (and s38 s39)))
   (let ((s41 (and s37 s40)))
   (let ((s46 (bvult s42 s45)))
   (let ((s47 (bvult s43 s45)))
   (let ((s48 (bvult s44 s45)))
   (let ((s49 (and s47 s48)))
   (let ((s50 (and s46 s49)))
   (let ((s55 (bvult s51 s54)))
   (let ((s56 (bvult s52 s54)))
   (let ((s57 (bvult s53 s54)))
   (let ((s58 (and s56 s57)))
   (let ((s59 (and s55 s58)))
   (let ((s64 (bvult s60 s63)))
   (let ((s65 (bvult s61 s63)))
   (let ((s66 (bvult s62 s63)))
   (let ((s67 (and s65 s66)))
   (let ((s68 (and s64 s67)))
   (let ((s73 (bvult s69 s72)))
   (let ((s74 (bvult s70 s72)))
   (let ((s75 (bvult s71 s72)))
   (let ((s76 (and s74 s75)))
   (let ((s77 (and s73 s76)))
   (let ((s82 (bvult s78 s81)))
   (let ((s83 (bvult s79 s81)))
   (let ((s84 (bvult s80 s81)))
   (let ((s85 (and s83 s84)))
   (let ((s86 (and s82 s85)))
   (let ((s91 (bvult s87 s90)))
   (let ((s92 (bvult s88 s90)))
   (let ((s93 (bvult s89 s90)))
   (let ((s94 (and s92 s93)))
   (let ((s95 (and s91 s94)))
   (let ((s108 (= (bvcomp s96 s107) #b1)))
   (let ((s110 (= (bvcomp s97 s109) #b1)))
   (let ((s112 (= (bvcomp s98 s111) #b1)))
   (let ((s113 (= (bvcomp s106 s107) #b1)))
   (let ((s114 (ite (bvule #x0b s24) s107 (table0 s24))))
   (let ((s115 (ite (bvule #x0b s25) s107 (table0 s25))))
   (let ((s116 (bvand s114 s115)))
   (let ((s117 (= (bvcomp s107 s114) #b1)))
   (let ((s118 (ite (bvule #x0b s26) s107 (table0 s26))))
   (let ((s119 (ite s117 s115 s118)))
   (let ((s120 (bvshl s114 #x0000000000000001)))
   (let ((s121 (ite (bvule #x03 s0) s107 (table1 s0))))
   (let ((s122 (= (bvcomp s99 s121) #b1)))
   (let ((s123 (ite (bvule #x0b s33) s107 (table0 s33))))
   (let ((s124 (ite (bvule #x0b s34) s107 (table0 s34))))
   (let ((s125 (bvand s123 s124)))
   (let ((s126 (= (bvcomp s107 s123) #b1)))
   (let ((s127 (ite (bvule #x0b s35) s107 (table0 s35))))
   (let ((s128 (ite s126 s124 s127)))
   (let ((s129 (bvshl s123 #x0000000000000001)))
   (let ((s130 (ite (bvule #x03 s1) s107 (table2 s1))))
   (let ((s131 (= (bvcomp s100 s130) #b1)))
   (let ((s132 (ite (bvule #x0b s42) s107 (table0 s42))))
   (let ((s133 (ite (bvule #x0b s43) s107 (table0 s43))))
   (let ((s134 (bvand s132 s133)))
   (let ((s135 (= (bvcomp s107 s132) #b1)))
   (let ((s136 (ite (bvule #x0b s44) s107 (table0 s44))))
   (let ((s137 (ite s135 s133 s136)))
   (let ((s138 (bvshl s132 #x0000000000000001)))
   (let ((s139 (ite (bvule #x03 s2) s107 (table3 s2))))
   (let ((s140 (= (bvcomp s101 s139) #b1)))
   (let ((s141 (ite (bvule #x0b s51) s107 (table0 s51))))
   (let ((s142 (ite (bvule #x0b s52) s107 (table0 s52))))
   (let ((s143 (bvand s141 s142)))
   (let ((s144 (= (bvcomp s107 s141) #b1)))
   (let ((s145 (ite (bvule #x0b s53) s107 (table0 s53))))
   (let ((s146 (ite s144 s142 s145)))
   (let ((s147 (bvshl s141 #x0000000000000001)))
   (let ((s148 (ite (bvule #x03 s3) s107 (table4 s3))))
   (let ((s149 (= (bvcomp s102 s148) #b1)))
   (let ((s150 (ite (bvule #x0b s60) s107 (table0 s60))))
   (let ((s151 (ite (bvule #x0b s61) s107 (table0 s61))))
   (let ((s152 (bvand s150 s151)))
   (let ((s153 (= (bvcomp s107 s150) #b1)))
   (let ((s154 (ite (bvule #x0b s62) s107 (table0 s62))))
   (let ((s155 (ite s153 s151 s154)))
   (let ((s156 (bvshl s150 #x0000000000000001)))
   (let ((s157 (ite (bvule #x03 s4) s107 (table5 s4))))
   (let ((s158 (= (bvcomp s103 s157) #b1)))
   (let ((s159 (ite (bvule #x0b s69) s107 (table0 s69))))
   (let ((s160 (ite (bvule #x0b s70) s107 (table0 s70))))
   (let ((s161 (bvand s159 s160)))
   (let ((s162 (= (bvcomp s107 s159) #b1)))
   (let ((s163 (ite (bvule #x0b s71) s107 (table0 s71))))
   (let ((s164 (ite s162 s160 s163)))
   (let ((s165 (bvshl s159 #x0000000000000001)))
   (let ((s166 (ite (bvule #x03 s5) s107 (table6 s5))))
   (let ((s167 (= (bvcomp s104 s166) #b1)))
   (let ((s168 (ite (bvule #x0b s78) s107 (table0 s78))))
   (let ((s169 (ite (bvule #x0b s79) s107 (table0 s79))))
   (let ((s170 (bvand s168 s169)))
   (let ((s171 (= (bvcomp s107 s168) #b1)))
   (let ((s172 (ite (bvule #x0b s80) s107 (table0 s80))))
   (let ((s173 (ite s171 s169 s172)))
   (let ((s174 (bvshl s168 #x0000000000000001)))
   (let ((s175 (ite (bvule #x03 s6) s107 (table7 s6))))
   (let ((s176 (= (bvcomp s105 s175) #b1)))
   (let ((s177 (ite (bvule #x0b s87) s107 (table0 s87))))
   (let ((s178 (ite (bvule #x0b s88) s107 (table0 s88))))
   (let ((s179 (bvand s177 s178)))
   (let ((s180 (= (bvcomp s107 s177) #b1)))
   (let ((s181 (ite (bvule #x0b s89) s107 (table0 s89))))
   (let ((s182 (ite s180 s178 s181)))
   (let ((s183 (bvshl s177 #x0000000000000001)))
   (let ((s184 (ite (bvule #x03 s7) s107 (table8 s7))))
   (let ((s185 (= (bvcomp s106 s184) #b1)))
   (let ((s197 (= (bvcomp s107 s186) #b1)))
   (let ((s198 (= (bvcomp s109 s187) #b1)))
   (let ((s200 (= (bvcomp s188 s199) #b1)))
   (let ((s201 (= (bvcomp s196 s199) #b1)))
   (let ((s202 (ite (bvule #x0b s24) s107 (table9 s24))))
   (let ((s203 (ite (bvule #x0b s25) s107 (table9 s25))))
   (let ((s204 (bvand s202 s203)))
   (let ((s205 (= (bvcomp s107 s202) #b1)))
   (let ((s206 (ite (bvule #x0b s26) s107 (table9 s26))))
   (let ((s207 (ite s205 s203 s206)))
   (let ((s208 (bvshl s202 #x0000000000000001)))
   (let ((s209 (ite (bvule #x03 s0) s107 (table10 s0))))
   (let ((s210 (= (bvcomp s189 s209) #b1)))
   (let ((s211 (ite (bvule #x0b s33) s107 (table9 s33))))
   (let ((s212 (ite (bvule #x0b s34) s107 (table9 s34))))
   (let ((s213 (bvand s211 s212)))
   (let ((s214 (= (bvcomp s107 s211) #b1)))
   (let ((s215 (ite (bvule #x0b s35) s107 (table9 s35))))
   (let ((s216 (ite s214 s212 s215)))
   (let ((s217 (bvshl s211 #x0000000000000001)))
   (let ((s218 (ite (bvule #x03 s1) s107 (table11 s1))))
   (let ((s219 (= (bvcomp s190 s218) #b1)))
   (let ((s220 (ite (bvule #x0b s42) s107 (table9 s42))))
   (let ((s221 (ite (bvule #x0b s43) s107 (table9 s43))))
   (let ((s222 (bvand s220 s221)))
   (let ((s223 (= (bvcomp s107 s220) #b1)))
   (let ((s224 (ite (bvule #x0b s44) s107 (table9 s44))))
   (let ((s225 (ite s223 s221 s224)))
   (let ((s226 (bvshl s220 #x0000000000000001)))
   (let ((s227 (ite (bvule #x03 s2) s107 (table12 s2))))
   (let ((s228 (= (bvcomp s191 s227) #b1)))
   (let ((s229 (ite (bvule #x0b s51) s107 (table9 s51))))
   (let ((s230 (ite (bvule #x0b s52) s107 (table9 s52))))
   (let ((s231 (bvand s229 s230)))
   (let ((s232 (= (bvcomp s107 s229) #b1)))
   (let ((s233 (ite (bvule #x0b s53) s107 (table9 s53))))
   (let ((s234 (ite s232 s230 s233)))
   (let ((s235 (bvshl s229 #x0000000000000001)))
   (let ((s236 (ite (bvule #x03 s3) s107 (table13 s3))))
   (let ((s237 (= (bvcomp s192 s236) #b1)))
   (let ((s238 (ite (bvule #x0b s60) s107 (table9 s60))))
   (let ((s239 (ite (bvule #x0b s61) s107 (table9 s61))))
   (let ((s240 (bvand s238 s239)))
   (let ((s241 (= (bvcomp s107 s238) #b1)))
   (let ((s242 (ite (bvule #x0b s62) s107 (table9 s62))))
   (let ((s243 (ite s241 s239 s242)))
   (let ((s244 (bvshl s238 #x0000000000000001)))
   (let ((s245 (ite (bvule #x03 s4) s107 (table14 s4))))
   (let ((s246 (= (bvcomp s193 s245) #b1)))
   (let ((s247 (ite (bvule #x0b s69) s107 (table9 s69))))
   (let ((s248 (ite (bvule #x0b s70) s107 (table9 s70))))
   (let ((s249 (bvand s247 s248)))
   (let ((s250 (= (bvcomp s107 s247) #b1)))
   (let ((s251 (ite (bvule #x0b s71) s107 (table9 s71))))
   (let ((s252 (ite s250 s248 s251)))
   (let ((s253 (bvshl s247 #x0000000000000001)))
   (let ((s254 (ite (bvule #x03 s5) s107 (table15 s5))))
   (let ((s255 (= (bvcomp s194 s254) #b1)))
   (let ((s256 (ite (bvule #x0b s78) s107 (table9 s78))))
   (let ((s257 (ite (bvule #x0b s79) s107 (table9 s79))))
   (let ((s258 (bvand s256 s257)))
   (let ((s259 (= (bvcomp s107 s256) #b1)))
   (let ((s260 (ite (bvule #x0b s80) s107 (table9 s80))))
   (let ((s261 (ite s259 s257 s260)))
   (let ((s262 (bvshl s256 #x0000000000000001)))
   (let ((s263 (ite (bvule #x03 s6) s107 (table16 s6))))
   (let ((s264 (= (bvcomp s195 s263) #b1)))
   (let ((s265 (ite (bvule #x0b s87) s107 (table9 s87))))
   (let ((s266 (ite (bvule #x0b s88) s107 (table9 s88))))
   (let ((s267 (bvand s265 s266)))
   (let ((s268 (= (bvcomp s107 s265) #b1)))
   (let ((s269 (ite (bvule #x0b s89) s107 (table9 s89))))
   (let ((s270 (ite s268 s266 s269)))
   (let ((s271 (bvshl s265 #x0000000000000001)))
   (let ((s272 (ite (bvule #x03 s7) s107 (table17 s7))))
   (let ((s273 (= (bvcomp s196 s272) #b1)))
   (let ((s285 (= (bvcomp s107 s274) #b1)))
   (let ((s286 (= (bvcomp s109 s275) #b1)))
   (let ((s288 (= (bvcomp s276 s287) #b1)))
   (let ((s289 (= (bvcomp s284 s287) #b1)))
   (let ((s290 (ite (bvule #x0b s24) s107 (table18 s24))))
   (let ((s291 (ite (bvule #x0b s25) s107 (table18 s25))))
   (let ((s292 (bvand s290 s291)))
   (let ((s293 (= (bvcomp s107 s290) #b1)))
   (let ((s294 (ite (bvule #x0b s26) s107 (table18 s26))))
   (let ((s295 (ite s293 s291 s294)))
   (let ((s296 (bvshl s290 #x0000000000000001)))
   (let ((s297 (ite (bvule #x03 s0) s107 (table19 s0))))
   (let ((s298 (= (bvcomp s277 s297) #b1)))
   (let ((s299 (ite (bvule #x0b s33) s107 (table18 s33))))
   (let ((s300 (ite (bvule #x0b s34) s107 (table18 s34))))
   (let ((s301 (bvand s299 s300)))
   (let ((s302 (= (bvcomp s107 s299) #b1)))
   (let ((s303 (ite (bvule #x0b s35) s107 (table18 s35))))
   (let ((s304 (ite s302 s300 s303)))
   (let ((s305 (bvshl s299 #x0000000000000001)))
   (let ((s306 (ite (bvule #x03 s1) s107 (table20 s1))))
   (let ((s307 (= (bvcomp s278 s306) #b1)))
   (let ((s308 (ite (bvule #x0b s42) s107 (table18 s42))))
   (let ((s309 (ite (bvule #x0b s43) s107 (table18 s43))))
   (let ((s310 (bvand s308 s309)))
   (let ((s311 (= (bvcomp s107 s308) #b1)))
   (let ((s312 (ite (bvule #x0b s44) s107 (table18 s44))))
   (let ((s313 (ite s311 s309 s312)))
   (let ((s314 (bvshl s308 #x0000000000000001)))
   (let ((s315 (ite (bvule #x03 s2) s107 (table21 s2))))
   (let ((s316 (= (bvcomp s279 s315) #b1)))
   (let ((s317 (ite (bvule #x0b s51) s107 (table18 s51))))
   (let ((s318 (ite (bvule #x0b s52) s107 (table18 s52))))
   (let ((s319 (bvand s317 s318)))
   (let ((s320 (= (bvcomp s107 s317) #b1)))
   (let ((s321 (ite (bvule #x0b s53) s107 (table18 s53))))
   (let ((s322 (ite s320 s318 s321)))
   (let ((s323 (bvshl s317 #x0000000000000001)))
   (let ((s324 (ite (bvule #x03 s3) s107 (table22 s3))))
   (let ((s325 (= (bvcomp s280 s324) #b1)))
   (let ((s326 (ite (bvule #x0b s60) s107 (table18 s60))))
   (let ((s327 (ite (bvule #x0b s61) s107 (table18 s61))))
   (let ((s328 (bvand s326 s327)))
   (let ((s329 (= (bvcomp s107 s326) #b1)))
   (let ((s330 (ite (bvule #x0b s62) s107 (table18 s62))))
   (let ((s331 (ite s329 s327 s330)))
   (let ((s332 (bvshl s326 #x0000000000000001)))
   (let ((s333 (ite (bvule #x03 s4) s107 (table23 s4))))
   (let ((s334 (= (bvcomp s281 s333) #b1)))
   (let ((s335 (ite (bvule #x0b s69) s107 (table18 s69))))
   (let ((s336 (ite (bvule #x0b s70) s107 (table18 s70))))
   (let ((s337 (bvand s335 s336)))
   (let ((s338 (= (bvcomp s107 s335) #b1)))
   (let ((s339 (ite (bvule #x0b s71) s107 (table18 s71))))
   (let ((s340 (ite s338 s336 s339)))
   (let ((s341 (bvshl s335 #x0000000000000001)))
   (let ((s342 (ite (bvule #x03 s5) s107 (table24 s5))))
   (let ((s343 (= (bvcomp s282 s342) #b1)))
   (let ((s344 (ite (bvule #x0b s78) s107 (table18 s78))))
   (let ((s345 (ite (bvule #x0b s79) s107 (table18 s79))))
   (let ((s346 (bvand s344 s345)))
   (let ((s347 (= (bvcomp s107 s344) #b1)))
   (let ((s348 (ite (bvule #x0b s80) s107 (table18 s80))))
   (let ((s349 (ite s347 s345 s348)))
   (let ((s350 (bvshl s344 #x0000000000000001)))
   (let ((s351 (ite (bvule #x03 s6) s107 (table25 s6))))
   (let ((s352 (= (bvcomp s283 s351) #b1)))
   (let ((s353 (ite (bvule #x0b s87) s107 (table18 s87))))
   (let ((s354 (ite (bvule #x0b s88) s107 (table18 s88))))
   (let ((s355 (bvand s353 s354)))
   (let ((s356 (= (bvcomp s107 s353) #b1)))
   (let ((s357 (ite (bvule #x0b s89) s107 (table18 s89))))
   (let ((s358 (ite s356 s354 s357)))
   (let ((s359 (bvshl s353 #x0000000000000001)))
   (let ((s360 (ite (bvule #x03 s7) s107 (table26 s7))))
   (let ((s361 (= (bvcomp s284 s360) #b1)))
   (let ((s373 (= (bvcomp s107 s362) #b1)))
   (let ((s374 (= (bvcomp s109 s363) #b1)))
   (let ((s375 (= (bvcomp s107 s364) #b1)))
   (let ((s376 (= (bvcomp s107 s372) #b1)))
   (let ((s377 (ite (bvule #x0b s24) s107 (table27 s24))))
   (let ((s378 (ite (bvule #x0b s25) s107 (table27 s25))))
   (let ((s379 (bvand s377 s378)))
   (let ((s380 (= (bvcomp s107 s377) #b1)))
   (let ((s381 (ite (bvule #x0b s26) s107 (table27 s26))))
   (let ((s382 (ite s380 s378 s381)))
   (let ((s383 (bvshl s377 #x0000000000000001)))
   (let ((s384 (ite (bvule #x03 s0) s107 (table28 s0))))
   (let ((s385 (= (bvcomp s365 s384) #b1)))
   (let ((s386 (ite (bvule #x0b s33) s107 (table27 s33))))
   (let ((s387 (ite (bvule #x0b s34) s107 (table27 s34))))
   (let ((s388 (bvand s386 s387)))
   (let ((s389 (= (bvcomp s107 s386) #b1)))
   (let ((s390 (ite (bvule #x0b s35) s107 (table27 s35))))
   (let ((s391 (ite s389 s387 s390)))
   (let ((s392 (bvshl s386 #x0000000000000001)))
   (let ((s393 (ite (bvule #x03 s1) s107 (table29 s1))))
   (let ((s394 (= (bvcomp s366 s393) #b1)))
   (let ((s395 (ite (bvule #x0b s42) s107 (table27 s42))))
   (let ((s396 (ite (bvule #x0b s43) s107 (table27 s43))))
   (let ((s397 (bvand s395 s396)))
   (let ((s398 (= (bvcomp s107 s395) #b1)))
   (let ((s399 (ite (bvule #x0b s44) s107 (table27 s44))))
   (let ((s400 (ite s398 s396 s399)))
   (let ((s401 (bvshl s395 #x0000000000000001)))
   (let ((s402 (ite (bvule #x03 s2) s107 (table30 s2))))
   (let ((s403 (= (bvcomp s367 s402) #b1)))
   (let ((s404 (ite (bvule #x0b s51) s107 (table27 s51))))
   (let ((s405 (ite (bvule #x0b s52) s107 (table27 s52))))
   (let ((s406 (bvand s404 s405)))
   (let ((s407 (= (bvcomp s107 s404) #b1)))
   (let ((s408 (ite (bvule #x0b s53) s107 (table27 s53))))
   (let ((s409 (ite s407 s405 s408)))
   (let ((s410 (bvshl s404 #x0000000000000001)))
   (let ((s411 (ite (bvule #x03 s3) s107 (table31 s3))))
   (let ((s412 (= (bvcomp s368 s411) #b1)))
   (let ((s413 (ite (bvule #x0b s60) s107 (table27 s60))))
   (let ((s414 (ite (bvule #x0b s61) s107 (table27 s61))))
   (let ((s415 (bvand s413 s414)))
   (let ((s416 (= (bvcomp s107 s413) #b1)))
   (let ((s417 (ite (bvule #x0b s62) s107 (table27 s62))))
   (let ((s418 (ite s416 s414 s417)))
   (let ((s419 (bvshl s413 #x0000000000000001)))
   (let ((s420 (ite (bvule #x03 s4) s107 (table32 s4))))
   (let ((s421 (= (bvcomp s369 s420) #b1)))
   (let ((s422 (ite (bvule #x0b s69) s107 (table27 s69))))
   (let ((s423 (ite (bvule #x0b s70) s107 (table27 s70))))
   (let ((s424 (bvand s422 s423)))
   (let ((s425 (= (bvcomp s107 s422) #b1)))
   (let ((s426 (ite (bvule #x0b s71) s107 (table27 s71))))
   (let ((s427 (ite s425 s423 s426)))
   (let ((s428 (bvshl s422 #x0000000000000001)))
   (let ((s429 (ite (bvule #x03 s5) s107 (table33 s5))))
   (let ((s430 (= (bvcomp s370 s429) #b1)))
   (let ((s431 (ite (bvule #x0b s78) s107 (table27 s78))))
   (let ((s432 (ite (bvule #x0b s79) s107 (table27 s79))))
   (let ((s433 (bvand s431 s432)))
   (let ((s434 (= (bvcomp s107 s431) #b1)))
   (let ((s435 (ite (bvule #x0b s80) s107 (table27 s80))))
   (let ((s436 (ite s434 s432 s435)))
   (let ((s437 (bvshl s431 #x0000000000000001)))
   (let ((s438 (ite (bvule #x03 s6) s107 (table34 s6))))
   (let ((s439 (= (bvcomp s371 s438) #b1)))
   (let ((s440 (ite (bvule #x0b s87) s107 (table27 s87))))
   (let ((s441 (ite (bvule #x0b s88) s107 (table27 s88))))
   (let ((s442 (bvand s440 s441)))
   (let ((s443 (= (bvcomp s107 s440) #b1)))
   (let ((s444 (ite (bvule #x0b s89) s107 (table27 s89))))
   (let ((s445 (ite s443 s441 s444)))
   (let ((s446 (bvshl s440 #x0000000000000001)))
   (let ((s447 (ite (bvule #x03 s7) s107 (table35 s7))))
   (let ((s448 (= (bvcomp s372 s447) #b1)))
   (let ((s460 (= (bvcomp s107 s449) #b1)))
   (let ((s461 (= (bvcomp s109 s450) #b1)))
   (let ((s462 (= (bvcomp s109 s451) #b1)))
   (let ((s463 (= (bvcomp s107 s459) #b1)))
   (let ((s464 (ite (bvule #x0b s24) s107 (table36 s24))))
   (let ((s465 (ite (bvule #x0b s25) s107 (table36 s25))))
   (let ((s466 (bvand s464 s465)))
   (let ((s467 (= (bvcomp s107 s464) #b1)))
   (let ((s468 (ite (bvule #x0b s26) s107 (table36 s26))))
   (let ((s469 (ite s467 s465 s468)))
   (let ((s470 (bvshl s464 #x0000000000000001)))
   (let ((s471 (ite (bvule #x03 s0) s107 (table37 s0))))
   (let ((s472 (= (bvcomp s452 s471) #b1)))
   (let ((s473 (ite (bvule #x0b s33) s107 (table36 s33))))
   (let ((s474 (ite (bvule #x0b s34) s107 (table36 s34))))
   (let ((s475 (bvand s473 s474)))
   (let ((s476 (= (bvcomp s107 s473) #b1)))
   (let ((s477 (ite (bvule #x0b s35) s107 (table36 s35))))
   (let ((s478 (ite s476 s474 s477)))
   (let ((s479 (bvshl s473 #x0000000000000001)))
   (let ((s480 (ite (bvule #x03 s1) s107 (table38 s1))))
   (let ((s481 (= (bvcomp s453 s480) #b1)))
   (let ((s482 (ite (bvule #x0b s42) s107 (table36 s42))))
   (let ((s483 (ite (bvule #x0b s43) s107 (table36 s43))))
   (let ((s484 (bvand s482 s483)))
   (let ((s485 (= (bvcomp s107 s482) #b1)))
   (let ((s486 (ite (bvule #x0b s44) s107 (table36 s44))))
   (let ((s487 (ite s485 s483 s486)))
   (let ((s488 (bvshl s482 #x0000000000000001)))
   (let ((s489 (ite (bvule #x03 s2) s107 (table39 s2))))
   (let ((s490 (= (bvcomp s454 s489) #b1)))
   (let ((s491 (ite (bvule #x0b s51) s107 (table36 s51))))
   (let ((s492 (ite (bvule #x0b s52) s107 (table36 s52))))
   (let ((s493 (bvand s491 s492)))
   (let ((s494 (= (bvcomp s107 s491) #b1)))
   (let ((s495 (ite (bvule #x0b s53) s107 (table36 s53))))
   (let ((s496 (ite s494 s492 s495)))
   (let ((s497 (bvshl s491 #x0000000000000001)))
   (let ((s498 (ite (bvule #x03 s3) s107 (table40 s3))))
   (let ((s499 (= (bvcomp s455 s498) #b1)))
   (let ((s500 (ite (bvule #x0b s60) s107 (table36 s60))))
   (let ((s501 (ite (bvule #x0b s61) s107 (table36 s61))))
   (let ((s502 (bvand s500 s501)))
   (let ((s503 (= (bvcomp s107 s500) #b1)))
   (let ((s504 (ite (bvule #x0b s62) s107 (table36 s62))))
   (let ((s505 (ite s503 s501 s504)))
   (let ((s506 (bvshl s500 #x0000000000000001)))
   (let ((s507 (ite (bvule #x03 s4) s107 (table41 s4))))
   (let ((s508 (= (bvcomp s456 s507) #b1)))
   (let ((s509 (ite (bvule #x0b s69) s107 (table36 s69))))
   (let ((s510 (ite (bvule #x0b s70) s107 (table36 s70))))
   (let ((s511 (bvand s509 s510)))
   (let ((s512 (= (bvcomp s107 s509) #b1)))
   (let ((s513 (ite (bvule #x0b s71) s107 (table36 s71))))
   (let ((s514 (ite s512 s510 s513)))
   (let ((s515 (bvshl s509 #x0000000000000001)))
   (let ((s516 (ite (bvule #x03 s5) s107 (table42 s5))))
   (let ((s517 (= (bvcomp s457 s516) #b1)))
   (let ((s518 (ite (bvule #x0b s78) s107 (table36 s78))))
   (let ((s519 (ite (bvule #x0b s79) s107 (table36 s79))))
   (let ((s520 (bvand s518 s519)))
   (let ((s521 (= (bvcomp s107 s518) #b1)))
   (let ((s522 (ite (bvule #x0b s80) s107 (table36 s80))))
   (let ((s523 (ite s521 s519 s522)))
   (let ((s524 (bvshl s518 #x0000000000000001)))
   (let ((s525 (ite (bvule #x03 s6) s107 (table43 s6))))
   (let ((s526 (= (bvcomp s458 s525) #b1)))
   (let ((s527 (ite (bvule #x0b s87) s107 (table36 s87))))
   (let ((s528 (ite (bvule #x0b s88) s107 (table36 s88))))
   (let ((s529 (bvand s527 s528)))
   (let ((s530 (= (bvcomp s107 s527) #b1)))
   (let ((s531 (ite (bvule #x0b s89) s107 (table36 s89))))
   (let ((s532 (ite s530 s528 s531)))
   (let ((s533 (bvshl s527 #x0000000000000001)))
   (let ((s534 (ite (bvule #x03 s7) s107 (table44 s7))))
   (let ((s535 (= (bvcomp s459 s534) #b1)))
   (and (= (table0 #x00) s96)
        (= (table0 #x01) s97)
        (= (table0 #x02) s98)
        (= (table0 #x03) s99)
        (= (table0 #x04) s100)
        (= (table0 #x05) s101)
        (= (table0 #x06) s102)
        (= (table0 #x07) s103)
        (= (table0 #x08) s104)
        (= (table0 #x09) s105)
        (= (table0 #x0a) s106)
        (= (table1 #x00) s116)
        (= (table1 #x01) s119)
        (= (table1 #x02) s120)
        (= (table2 #x00) s125)
        (= (table2 #x01) s128)
        (= (table2 #x02) s129)
        (= (table3 #x00) s134)
        (= (table3 #x01) s137)
        (= (table3 #x02) s138)
        (= (table4 #x00) s143)
        (= (table4 #x01) s146)
        (= (table4 #x02) s147)
        (= (table5 #x00) s152)
        (= (table5 #x01) s155)
        (= (table5 #x02) s156)
        (= (table6 #x00) s161)
        (= (table6 #x01) s164)
        (= (table6 #x02) s165)
        (= (table7 #x00) s170)
        (= (table7 #x01) s173)
        (= (table7 #x02) s174)
        (= (table8 #x00) s179)
        (= (table8 #x01) s182)
        (= (table8 #x02) s183)
        (= (table9 #x00) s186)
        (= (table9 #x01) s187)
        (= (table9 #x02) s188)
        (= (table9 #x03) s189)
        (= (table9 #x04) s190)
        (= (table9 #x05) s191)
        (= (table9 #x06) s192)
        (= (table9 #x07) s193)
        (= (table9 #x08) s194)
        (= (table9 #x09) s195)
        (= (table9 #x0a) s196)
        (= (table10 #x00) s204)
        (= (table10 #x01) s207)
        (= (table10 #x02) s208)
        (= (table11 #x00) s213)
        (= (table11 #x01) s216)
        (= (table11 #x02) s217)
        (= (table12 #x00) s222)
        (= (table12 #x01) s225)
        (= (table12 #x02) s226)
        (= (table13 #x00) s231)
        (= (table13 #x01) s234)
        (= (table13 #x02) s235)
        (= (table14 #x00) s240)
        (= (table14 #x01) s243)
        (= (table14 #x02) s244)
        (= (table15 #x00) s249)
        (= (table15 #x01) s252)
        (= (table15 #x02) s253)
        (= (table16 #x00) s258)
        (= (table16 #x01) s261)
        (= (table16 #x02) s262)
        (= (table17 #x00) s267)
        (= (table17 #x01) s270)
        (= (table17 #x02) s271)
        (= (table18 #x00) s274)
        (= (table18 #x01) s275)
        (= (table18 #x02) s276)
        (= (table18 #x03) s277)
        (= (table18 #x04) s278)
        (= (table18 #x05) s279)
        (= (table18 #x06) s280)
        (= (table18 #x07) s281)
        (= (table18 #x08) s282)
        (= (table18 #x09) s283)
        (= (table18 #x0a) s284)
        (= (table19 #x00) s292)
        (= (table19 #x01) s295)
        (= (table19 #x02) s296)
        (= (table20 #x00) s301)
        (= (table20 #x01) s304)
        (= (table20 #x02) s305)
        (= (table21 #x00) s310)
        (= (table21 #x01) s313)
        (= (table21 #x02) s314)
        (= (table22 #x00) s319)
        (= (table22 #x01) s322)
        (= (table22 #x02) s323)
        (= (table23 #x00) s328)
        (= (table23 #x01) s331)
        (= (table23 #x02) s332)
        (= (table24 #x00) s337)
        (= (table24 #x01) s340)
        (= (table24 #x02) s341)
        (= (table25 #x00) s346)
        (= (table25 #x01) s349)
        (= (table25 #x02) s350)
        (= (table26 #x00) s355)
        (= (table26 #x01) s358)
        (= (table26 #x02) s359)
        (= (table27 #x00) s362)
        (= (table27 #x01) s363)
        (= (table27 #x02) s364)
        (= (table27 #x03) s365)
        (= (table27 #x04) s366)
        (= (table27 #x05) s367)
        (= (table27 #x06) s368)
        (= (table27 #x07) s369)
        (= (table27 #x08) s370)
        (= (table27 #x09) s371)
        (= (table27 #x0a) s372)
        (= (table28 #x00) s379)
        (= (table28 #x01) s382)
        (= (table28 #x02) s383)
        (= (table29 #x00) s388)
        (= (table29 #x01) s391)
        (= (table29 #x02) s392)
        (= (table30 #x00) s397)
        (= (table30 #x01) s400)
        (= (table30 #x02) s401)
        (= (table31 #x00) s406)
        (= (table31 #x01) s409)
        (= (table31 #x02) s410)
        (= (table32 #x00) s415)
        (= (table32 #x01) s418)
        (= (table32 #x02) s419)
        (= (table33 #x00) s424)
        (= (table33 #x01) s427)
        (= (table33 #x02) s428)
        (= (table34 #x00) s433)
        (= (table34 #x01) s436)
        (= (table34 #x02) s437)
        (= (table35 #x00) s442)
        (= (table35 #x01) s445)
        (= (table35 #x02) s446)
        (= (table36 #x00) s449)
        (= (table36 #x01) s450)
        (= (table36 #x02) s451)
        (= (table36 #x03) s452)
        (= (table36 #x04) s453)
        (= (table36 #x05) s454)
        (= (table36 #x06) s455)
        (= (table36 #x07) s456)
        (= (table36 #x08) s457)
        (= (table36 #x09) s458)
        (= (table36 #x0a) s459)
        (= (table37 #x00) s466)
        (= (table37 #x01) s469)
        (= (table37 #x02) s470)
        (= (table38 #x00) s475)
        (= (table38 #x01) s478)
        (= (table38 #x02) s479)
        (= (table39 #x00) s484)
        (= (table39 #x01) s487)
        (= (table39 #x02) s488)
        (= (table40 #x00) s493)
        (= (table40 #x01) s496)
        (= (table40 #x02) s497)
        (= (table41 #x00) s502)
        (= (table41 #x01) s505)
        (= (table41 #x02) s506)
        (= (table42 #x00) s511)
        (= (table42 #x01) s514)
        (= (table42 #x02) s515)
        (= (table43 #x00) s520)
        (= (table43 #x01) s523)
        (= (table43 #x02) s524)
        (= (table44 #x00) s529)
        (= (table44 #x01) s532)
        (= (table44 #x02) s533)
        (and s23 s32 s41 s50 s59 s68 s77 s86 s95 s108 s110 s112 s113 s122 s131 s140 s149 s158 s167 s176 s185 s197 s198 s200 s201 s210 s219 s228 s237 s246 s255 s264 s273 s285 s286 s288 s289 s298 s307 s316 s325 s334 s343 s352 s361 s373 s374 s375 s376 s385 s394 s403 s412 s421 s430 s439 s448 s460 s461 s462 s463 s472 s481 s490 s499 s508 s517 s526 s535 s_1))))))))))))))))))))))))))))))))))))))))))))))))))))))))))))))))))))))))))))))))))))))))))))))))))))))))))))))))))))))))))))))))))))))))))))))))))))))))))))))))))))))))))))))))))))))))))))))))))))))))))))))))))))))))))))))))))))))))))))))))))))))))))))))))))))))))))))))))))))))))))))))))))))))))))))))))))))))))))))))))))))))))))))))))))))))))))))))))))))))))))))))))))))))))))))))))))))))))))))))))))))))))))))))))))))))))))))))))))))))
(check-sat)
